73 93 26 24 99 16 10 30 46 88 42 47 97 35 87 82 74 57 66 90 53 86 41 31 89 56 36 61 34 70 38 14 2 48 72 15 21 37 43 50 69 62 68 40 80 20 8 79 78 17 19 59 92 3 1 44 91 85 4 32 27 25 18 13 76 64 94 28 98 33 52 5 39 63 51 6 81 71 77 23 84 45 9 22 95 75 11 58 54 7 12 55 65 60 96 29 49 67 83 0 

